Reading model...
...model read.
creating competitive generators file...
...competitive generators recorded.
Loading data...
.. real-time data read.
Compiling instance...
...instance created.
Creating Offer Mitigation (model will solve as dispatch if TRUE)...
Solving...

Welcome to IBM(R) ILOG(R) CPLEX(R) Interactive Optimizer 12.10.0.0
  with Simplex, Mixed Integer & Barrier Optimizers
5725-A06 5725-A29 5724-Y48 5724-Y49 5724-Y54 5724-Y55 5655-Y21
Copyright IBM Corp. 1988, 2019.  All Rights Reserved.

Type 'help' for a list of available commands.
Type 'help' followed by a command name for more
information on commands.

CPLEX> Logfile 'cplex.log' closed.
Logfile 'C:\Users\wenmi\Desktop\competitiveMPEC\logs\tmpodc139xs.cplex.log' open.
CPLEX> New value for parallel optimization mode: -1
CPLEX> New value for mixed integer optimality gap tolerance: 0.01
CPLEX> New value for deterministic time limit in ticks: 30000
CPLEX> Problem 'C:\Users\wenmi\Desktop\competitiveMPEC\logs\tmp_i4a53jh.pyomo.lp' read.
Read time = 0.03 sec. (2.90 ticks)
CPLEX> Problem name         : C:\Users\wenmi\Desktop\competitiveMPEC\logs\tmp_i4a53jh.pyomo.lp
Objective sense      : Minimize
Variables            :   25837  [Nneg: 1,  Box: 21420,  Free: 4416]
Objective nonzeros   :    2496
Linear constraints   :   27321  [Less: 13885,  Greater: 4416,  Equal: 9020]
  Nonzeros           :   86197
  RHS nonzeros       :   11834

Variables            : Min LB: -5000.000        Max UB: 1000000.       
Objective nonzeros   : Min   : 15.73158         Max   : 124.0997       
Linear constraints   :
  Nonzeros           : Min   : 0.9219544        Max   : 390.6461       
  RHS nonzeros       : Min   : 1.000000         Max   : 5000.000       
CPLEX> Version identifier: 12.10.0.0 | 2019-11-26 | 843d4de2ae
CPXPARAM_Parallel                                -1
CPXPARAM_DetTimeLimit                            30000
CPXPARAM_MIP_Tolerances_MIPGap                   0.01
Parallel mode: opportunistic, using up to 16 threads for concurrent optimization:
 * Starting dual Simplex on 1 thread...
 * Starting Barrier on 14 threads...
 * Starting primal Simplex on 1 thread...
Tried aggregator 1 time.
LP Presolve eliminated 20317 rows and 14654 columns.
Aggregator did 818 substitutions.
Reduced LP has 6186 rows, 10365 columns, and 36424 nonzeros.
Presolve time = 0.05 sec. (29.88 ticks)
Symmetry aggregator did 6969 additional substitutions.
Initializing dual steep norms . . .

Iteration log . . .
Iteration:     1   Dual objective     =             0.000000
Perturbation started.
Iteration:   101   Dual objective     =             0.000000
Iteration:   342   Dual objective     =            49.102220
Iteration:   574   Dual objective     =            52.761055
Iteration:   793   Dual objective     =            52.794514
Iteration:   968   Dual objective     =            52.812450
Removing perturbation.

Dual crossover.
  Dual:  Fixed no variables.
  Primal:  Fixed no variables.

Dual simplex solved model.


Dual simplex - Optimal:  Objective =  0.0000000000e+00
Solution time =    0.09 sec.  Iterations = 1206 (0)
Deterministic time = 70.34 ticks  (756.34 ticks/sec)

CPLEX> Solution written to file 'C:\Users\wenmi\Desktop\competitiveMPEC\logs\tmpag9kmym3.cplex.sol'.
CPLEX> Exporting results... 
...storage offer mitigation file created
Converting model to MPEC...
...converted
NOTE: initial MIP solve with only storage competitive to get feasible solution
Solving...

Welcome to IBM(R) ILOG(R) CPLEX(R) Interactive Optimizer 12.10.0.0
  with Simplex, Mixed Integer & Barrier Optimizers
5725-A06 5725-A29 5724-Y48 5724-Y49 5724-Y54 5724-Y55 5655-Y21
Copyright IBM Corp. 1988, 2019.  All Rights Reserved.

Type 'help' for a list of available commands.
Type 'help' followed by a command name for more
information on commands.

CPLEX> Logfile 'cplex.log' closed.
Logfile 'C:\Users\wenmi\Desktop\competitiveMPEC\logs\tmpu6wzzghs.cplex.log' open.
CPLEX> New value for parallel optimization mode: -1
CPLEX> New value for mixed integer optimality gap tolerance: 0.01
CPLEX> New value for deterministic time limit in ticks: 30000
CPLEX> Problem 'C:\Users\wenmi\Desktop\competitiveMPEC\logs\tmp3lkzbx_w.pyomo.lp' read.
Read time = 0.14 sec. (13.58 ticks)
CPLEX> Problem name         : C:\Users\wenmi\Desktop\competitiveMPEC\logs\tmp3lkzbx_w.pyomo.lp
Objective sense      : Maximize
Variables            :   53320  [Nneg: 1,  Box: 21805,  Free: 4416,
                                 Binary: 27098]
Objective nonzeros   :    8640
Linear constraints   :  122164  [Less: 40983,  Greater: 58612,  Equal: 22569]
  Nonzeros           :  286942
  RHS nonzeros       :   66642

Variables            : Min LB: -5000.000        Max UB: 1000000.       
Objective nonzeros   : Min   : 2.333333         Max   : 795.5000       
Linear constraints   :
  Nonzeros           : Min   : 0.9219544        Max   : 1000000.       
  RHS nonzeros       : Min   : 1.000000         Max   : 1000000.       
CPLEX> Version identifier: 12.10.0.0 | 2019-11-26 | 843d4de2ae
CPXPARAM_Parallel                                -1
CPXPARAM_DetTimeLimit                            30000
CPXPARAM_MIP_Tolerances_MIPGap                   0.01
Tried aggregator 3 times.
MIP Presolve eliminated 89014 rows and 20574 columns.
MIP Presolve added 3024 rows and 0 columns.
MIP Presolve modified 23944 coefficients.
Aggregator did 12804 substitutions.
Reduced MIP has 23370 rows, 19126 columns, and 69754 nonzeros.
Reduced MIP has 7535 binaries, 0 generals, 0 SOSs, and 0 indicators.
Presolve time = 0.14 sec. (164.01 ticks)
Probing fixed 442 vars, tightened 3596 bounds.
Probing time = 0.03 sec. (17.30 ticks)
Tried aggregator 2 times.
Detecting symmetries...
MIP Presolve eliminated 980 rows and 884 columns.
MIP Presolve modified 2688 coefficients.
Aggregator did 24 substitutions.
Reduced MIP has 22366 rows, 18218 columns, and 66838 nonzeros.
Reduced MIP has 7093 binaries, 0 generals, 0 SOSs, and 0 indicators.
Presolve time = 0.06 sec. (63.34 ticks)
Probing fixed 0 vars, tightened 219 bounds.
Probing time = 0.11 sec. (31.91 ticks)
Clique table members: 51687.
MIP emphasis: balance optimality and feasibility.
MIP search method: dynamic search.
Parallel mode: opportunistic, using up to 16 threads.
Root relaxation solution time = 0.20 sec. (473.10 ticks)

        Nodes                                         Cuts/
   Node  Left     Objective  IInf  Best Integer    Best Bound    ItCnt     Gap

      0     0        0.0000    50                      0.0000     4595         
*     0+    0                            0.0000        0.0000             0.00%
      0     0        cutoff              0.0000        0.0000     4595    0.00%
Elapsed time = 0.80 sec. (944.65 ticks, tree = 0.01 MB, solutions = 1)

Root node processing (before b&c):
  Real time             =    0.80 sec. (946.55 ticks)
Parallel b&c, 16 threads:
  Real time             =    0.00 sec. (0.00 ticks)
  Sync time (average)   =    0.00 sec.
  Wait time (average)   =    0.00 sec.
                          ------------
Total (root+branch&cut) =    0.80 sec. (946.55 ticks)

Solution pool: 1 solution saved.

MIP - Integer optimal solution:  Objective =  0.0000000000e+00
Solution time =    0.80 sec.  Iterations = 4595  Nodes = 0
Deterministic time = 946.70 ticks  (1187.83 ticks/sec)

CPLEX> Incumbent solution written to file 'C:\Users\wenmi\Desktop\competitiveMPEC\logs\tmpk2lp_qy3.cplex.sol'.
CPLEX> NOTE: no warmstart specified for MIP iteration, default behavior is true
NOTE: resolving with all competitive generators using storage-only solution to warmstart
Solving...

Welcome to IBM(R) ILOG(R) CPLEX(R) Interactive Optimizer 12.10.0.0
  with Simplex, Mixed Integer & Barrier Optimizers
5725-A06 5725-A29 5724-Y48 5724-Y49 5724-Y54 5724-Y55 5655-Y21
Copyright IBM Corp. 1988, 2019.  All Rights Reserved.

Type 'help' for a list of available commands.
Type 'help' followed by a command name for more
information on commands.

CPLEX> Logfile 'cplex.log' closed.
Logfile 'C:\Users\wenmi\Desktop\competitiveMPEC\logs\tmpu2v5dzim.cplex.log' open.
CPLEX> New value for parallel optimization mode: -1
CPLEX> New value for mixed integer optimality gap tolerance: 0.01
CPLEX> New value for deterministic time limit in ticks: 30000
CPLEX> Problem 'C:\Users\wenmi\Desktop\competitiveMPEC\logs\tmpo3w7cbm3.pyomo.lp' read.
Read time = 0.14 sec. (13.60 ticks)
CPLEX> MIP start file 'C:\Users\wenmi\Desktop\competitiveMPEC\logs\tmpthh5qbdg.cplex.mst' read.
CPLEX> Problem name         : C:\Users\wenmi\Desktop\competitiveMPEC\logs\tmpo3w7cbm3.pyomo.lp
Objective sense      : Maximize
Variables            :   54040  [Nneg: 1,  Box: 22525,  Free: 4416,
                                 Binary: 27098]
Objective nonzeros   :    9336
Linear constraints   :  122164  [Less: 40983,  Greater: 58612,  Equal: 22569]
  Nonzeros           :  286942
  RHS nonzeros       :   66642

Variables            : Min LB: -5000.000        Max UB: 1000000.       
Objective nonzeros   : Min   : 2.333333         Max   : 766.5000       
Linear constraints   :
  Nonzeros           : Min   : 0.9219544        Max   : 1000000.       
  RHS nonzeros       : Min   : 1.000000         Max   : 1000000.       
CPLEX> Version identifier: 12.10.0.0 | 2019-11-26 | 843d4de2ae
CPXPARAM_Parallel                                -1
CPXPARAM_DetTimeLimit                            30000
CPXPARAM_MIP_Tolerances_MIPGap                   0.01
1 of 1 MIP starts provided solutions.
MIP start 'm1' defined initial solution with objective 0.0000.
Tried aggregator 3 times.
MIP Presolve eliminated 89014 rows and 21294 columns.
MIP Presolve added 3024 rows and 0 columns.
MIP Presolve modified 23944 coefficients.
Aggregator did 12804 substitutions.
Reduced MIP has 23370 rows, 19126 columns, and 69754 nonzeros.
Reduced MIP has 7535 binaries, 0 generals, 0 SOSs, and 0 indicators.
Presolve time = 0.17 sec. (164.36 ticks)
Probing fixed 442 vars, tightened 3596 bounds.
Probing time = 0.05 sec. (17.30 ticks)
Tried aggregator 2 times.
Detecting symmetries...
MIP Presolve eliminated 980 rows and 884 columns.
MIP Presolve modified 2688 coefficients.
Aggregator did 24 substitutions.
Reduced MIP has 22366 rows, 18218 columns, and 66838 nonzeros.
Reduced MIP has 7093 binaries, 0 generals, 0 SOSs, and 0 indicators.
Presolve time = 0.06 sec. (63.35 ticks)
Probing fixed 0 vars, tightened 219 bounds.
Probing time = 0.11 sec. (31.91 ticks)
Clique table members: 51687.
MIP emphasis: balance optimality and feasibility.
MIP search method: dynamic search.
Parallel mode: opportunistic, using up to 16 threads.
Root relaxation solution time = 0.25 sec. (525.99 ticks)

        Nodes                                         Cuts/
   Node  Left     Objective  IInf  Best Integer    Best Bound    ItCnt     Gap

*     0+    0                            0.0000   5.52653e+07              --- 
      0     0    78815.2494   236        0.0000    78815.2494     5777     --- 
*     0+    0                            0.0003    78815.2494              --- 
      0     0    78545.0727   236        0.0003     Cuts: 511     5955     --- 
      0     0    78451.9438   236        0.0003     Cuts: 450     6158     --- 
      0     0    78435.2295   236        0.0003     Cuts: 431     6218     --- 
      0     0    78435.2295   236        0.0003       Cuts: 4     6224     --- 
      0     0    78435.2295   236        0.0003       Cuts: 2     6232     --- 
      0     0    78435.2295   236        0.0003      Cuts: 63     6277     --- 
      0     2        cutoff              0.0003    61208.4346     6571     --- 
Elapsed time = 3.22 sec. (2477.53 ticks, tree = 0.02 MB, solutions = 2)
    245    38    23355.2123    15        0.0003    36264.6554     7984     --- 
    630   259    infeasible              0.0003    33263.7403    11836     --- 
   1052    50    infeasible              0.0003    13176.1183    13001     --- 
   1270    61        cutoff              0.0003    13176.1183    12912     --- 

Cover cuts applied:  1
Implied bound cuts applied:  25
Flow cuts applied:  23
Mixed integer rounding cuts applied:  6
Lift and project cuts applied:  1
Gomory fractional cuts applied:  40

Root node processing (before b&c):
  Real time             =    2.55 sec. (2460.76 ticks)
Parallel b&c, 16 threads:
  Real time             =    3.14 sec. (986.75 ticks)
  Sync time (average)   =    0.69 sec.
  Wait time (average)   =    0.00 sec.
                          ------------
Total (root+branch&cut) =    5.69 sec. (3447.51 ticks)

Solution pool: 2 solutions saved.

MIP - Integer optimal solution:  Objective =  3.2014888625e-04
Solution time =    5.69 sec.  Iterations = 13074  Nodes = 1272
Deterministic time = 3447.67 ticks  (606.13 ticks/sec)

CPLEX> Incumbent solution written to file 'C:\Users\wenmi\Desktop\competitiveMPEC\logs\tmphzgd23wp.cplex.sol'.
CPLEX> Exporting results... 
